32	0

0	1	2
4	1	3
9	1	4
6	1	5
10	1	6
1	2	7	8
5	1	9
7	1	9
7	1	10
7	1	11
8	1	12
5	1	13
6	2	14	15
2	1	16
2	1	16
9	1	17
8	1	18
3	1	19
10	2	20	21
5	1	24
2	1	22
1	2	23	24
4	2	25	27
7	2	25	27
4	1	26
3	2	28	29
5	2	28	29
10	1	30
10	1	30
5	1	31
4	1	32
0	0
